language Essence 1.3
$ generated by bacp-gen.pl with seed 4272915506
$ edge probability 0.0428
$ course loads in range 2..7
letting n_courses be 184
letting n_periods be 24
letting load_per_period_lb be 9
letting load_per_period_ub be 33
letting courses_per_period_lb be 4
letting courses_per_period_ub be 8
letting course_load be function(
1 --> 5,
2 --> 6,
3 --> 5,
4 --> 4,
5 --> 2,
6 --> 4,
7 --> 6,
8 --> 2,
9 --> 6,
10 --> 5,
11 --> 6,
12 --> 4,
13 --> 2,
14 --> 4,
15 --> 3,
16 --> 3,
17 --> 2,
18 --> 5,
19 --> 4,
20 --> 7,
21 --> 3,
22 --> 4,
23 --> 6,
24 --> 5,
25 --> 2,
26 --> 2,
27 --> 6,
28 --> 5,
29 --> 2,
30 --> 3,
31 --> 5,
32 --> 7,
33 --> 5,
34 --> 7,
35 --> 4,
36 --> 6,
37 --> 3,
38 --> 4,
39 --> 2,
40 --> 5,
41 --> 5,
42 --> 4,
43 --> 5,
44 --> 4,
45 --> 5,
46 --> 5,
47 --> 6,
48 --> 2,
49 --> 2,
50 --> 6,
51 --> 2,
52 --> 4,
53 --> 2,
54 --> 3,
55 --> 2,
56 --> 7,
57 --> 5,
58 --> 7,
59 --> 4,
60 --> 3,
61 --> 3,
62 --> 3,
63 --> 5,
64 --> 3,
65 --> 5,
66 --> 7,
67 --> 5,
68 --> 6,
69 --> 3,
70 --> 6,
71 --> 4,
72 --> 6,
73 --> 7,
74 --> 7,
75 --> 6,
76 --> 6,
77 --> 4,
78 --> 2,
79 --> 6,
80 --> 3,
81 --> 3,
82 --> 2,
83 --> 5,
84 --> 6,
85 --> 4,
86 --> 3,
87 --> 2,
88 --> 5,
89 --> 2,
90 --> 2,
91 --> 5,
92 --> 2,
93 --> 2,
94 --> 6,
95 --> 5,
96 --> 2,
97 --> 2,
98 --> 4,
99 --> 2,
100 --> 4,
101 --> 3,
102 --> 2,
103 --> 3,
104 --> 3,
105 --> 5,
106 --> 6,
107 --> 2,
108 --> 3,
109 --> 2,
110 --> 2,
111 --> 5,
112 --> 3,
113 --> 7,
114 --> 3,
115 --> 2,
116 --> 4,
117 --> 6,
118 --> 5,
119 --> 6,
120 --> 6,
121 --> 4,
122 --> 3,
123 --> 5,
124 --> 3,
125 --> 6,
126 --> 2,
127 --> 2,
128 --> 7,
129 --> 6,
130 --> 7,
131 --> 4,
132 --> 5,
133 --> 3,
134 --> 2,
135 --> 6,
136 --> 4,
137 --> 2,
138 --> 5,
139 --> 6,
140 --> 2,
141 --> 3,
142 --> 3,
143 --> 2,
144 --> 5,
145 --> 4,
146 --> 2,
147 --> 2,
148 --> 6,
149 --> 5,
150 --> 5,
151 --> 2,
152 --> 5,
153 --> 3,
154 --> 4,
155 --> 4,
156 --> 4,
157 --> 5,
158 --> 3,
159 --> 3,
160 --> 5,
161 --> 4,
162 --> 6,
163 --> 6,
164 --> 2,
165 --> 7,
166 --> 4,
167 --> 5,
168 --> 2,
169 --> 6,
170 --> 5,
171 --> 4,
172 --> 4,
173 --> 3,
174 --> 2,
175 --> 6,
176 --> 2,
177 --> 2,
178 --> 5,
179 --> 6,
180 --> 3,
181 --> 2,
182 --> 3,
183 --> 2,
184 --> 4
)
$ layers: 47 78 59
$ max edges per layer: 3666 4602
$ generating 353 edges
letting prerequisite be relation (
(26,48),
(27,49),
(14,50),
(37,51),
(29,52),
(14,53),
(8,54),
(5,55),
(40,56),
(45,57),
(28,58),
(11,59),
(26,60),
(6,61),
(27,62),
(33,63),
(42,64),
(22,65),
(42,66),
(11,67),
(15,68),
(8,69),
(1,70),
(20,71),
(37,72),
(28,73),
(13,74),
(40,75),
(42,76),
(26,77),
(39,78),
(29,79),
(11,80),
(7,81),
(16,82),
(14,83),
(35,84),
(37,85),
(9,86),
(42,87),
(18,88),
(10,89),
(22,90),
(22,91),
(41,92),
(5,93),
(6,94),
(2,95),
(46,96),
(12,97),
(27,98),
(16,99),
(30,100),
(32,101),
(21,102),
(47,103),
(12,104),
(21,105),
(1,106),
(26,107),
(29,108),
(7,109),
(29,110),
(45,111),
(35,112),
(22,113),
(24,114),
(2,115),
(18,116),
(44,117),
(34,118),
(35,119),
(13,120),
(23,121),
(23,122),
(32,123),
(42,124),
(22,125),
(84,126),
(61,127),
(106,128),
(102,129),
(81,130),
(101,131),
(67,132),
(71,133),
(63,134),
(53,135),
(75,136),
(124,137),
(116,138),
(117,139),
(52,140),
(116,141),
(74,142),
(78,143),
(58,144),
(59,145),
(123,146),
(85,147),
(112,148),
(87,149),
(111,150),
(87,151),
(67,152),
(81,153),
(71,154),
(115,155),
(81,156),
(78,157),
(110,158),
(88,159),
(112,160),
(77,161),
(107,162),
(87,163),
(81,164),
(97,165),
(93,166),
(76,167),
(82,168),
(65,169),
(102,170),
(101,171),
(66,172),
(75,173),
(94,174),
(110,175),
(86,176),
(121,177),
(103,178),
(66,179),
(61,180),
(100,181),
(51,182),
(105,183),
(72,184),
(33,50),
(72,169),
(60,139),
(28,70),
(29,56),
(29,69),
(14,93),
(86,128),
(7,48),
(42,89),
(24,123),
(98,181),
(33,104),
(8,78),
(9,59),
(39,122),
(10,83),
(66,148),
(17,113),
(15,93),
(108,130),
(107,174),
(38,102),
(123,159),
(120,131),
(16,116),
(26,53),
(22,64),
(48,153),
(44,122),
(102,153),
(92,132),
(34,87),
(115,179),
(1,101),
(33,72),
(20,49),
(10,73),
(97,138),
(40,64),
(124,131),
(18,101),
(7,122),
(28,63),
(2,56),
(43,111),
(79,180),
(5,49),
(117,138),
(79,158),
(23,72),
(55,184),
(74,140),
(28,67),
(111,159),
(120,139),
(64,151),
(38,76),
(15,65),
(69,144),
(46,63),
(61,151),
(58,160),
(119,171),
(72,161),
(25,122),
(100,141),
(50,181),
(5,117),
(73,175),
(11,75),
(81,137),
(108,126),
(123,160),
(20,84),
(51,154),
(99,148),
(58,140),
(57,146),
(3,94),
(42,107),
(112,154),
(41,88),
(37,91),
(106,137),
(61,169),
(21,111),
(12,120),
(101,149),
(110,166),
(59,138),
(22,48),
(63,180),
(38,72),
(86,134),
(12,114),
(11,97),
(76,137),
(62,184),
(43,66),
(74,155),
(43,90),
(69,129),
(8,50),
(47,87),
(67,182),
(50,143),
(117,152),
(11,121),
(49,173),
(41,113),
(36,120),
(40,86),
(17,55),
(91,137),
(36,90),
(64,166),
(16,97),
(37,62),
(87,172),
(82,182),
(46,82),
(47,50),
(9,54),
(53,176),
(27,125),
(29,57),
(32,58),
(112,142),
(36,64),
(120,173),
(119,127),
(39,118),
(39,113),
(6,76),
(4,82),
(123,161),
(9,70),
(2,93),
(43,88),
(92,133),
(39,97),
(46,116),
(14,119),
(42,121),
(5,62),
(119,163),
(31,101),
(82,178),
(49,148),
(70,170),
(94,168),
(103,157),
(17,86),
(100,138),
(17,91),
(49,169),
(94,151),
(20,116),
(17,61),
(106,146),
(67,165),
(103,137),
(31,90),
(79,157),
(103,174),
(32,94),
(16,113),
(114,167),
(54,138),
(104,141),
(8,107),
(15,75),
(104,164),
(5,125),
(83,156),
(80,145),
(34,50),
(95,129),
(44,121),
(25,98),
(23,75),
(13,67),
(16,104),
(124,163),
(72,139),
(17,49),
(30,48),
(68,171),
(26,100),
(33,108),
(74,181),
(9,61),
(114,131),
(3,72),
(101,167),
(91,177),
(54,175),
(3,106),
(42,62),
(11,58),
(110,130),
(7,76),
(14,118),
(72,126),
(88,179),
(72,174),
(121,168),
(39,88),
(8,61),
(4,101),
(28,82),
(24,100),
(59,156),
(96,162),
(53,180)
)
